Route #1:
Route #2: 7
Route #3: 1 6 21 18 3
Route #4: 2 23 17
Route #5: 31
Route #6: 24
Route #7: 14
Route #8: 5 22
Route #9: 20 25 29 27
Route #10: 12
Route #11: 19
Route #12: 13 10 15 9
Route #13: 11 8 26 28 4 16 30

Cost: 2082.4966666803302
